50
9648

689 610
879 964
884 332
788 665
366 806
746 859
675 711
606 532
617 572
576 931
311 715
357 878
500 633
993 188
348 174
762 785
440 821
769 132
902 573
150 61
343 907
859 416
70 506
863 727
927 95
903 404
982 104
927 264
798 578
116 230
193 651
356 938
530 742
100 295
710 712
671 713
964 837
204 704
234 992
484 657
109 72
272 172
681 561
9 482
96 817
157 863
39 307
240 665
895 8
443 588
